
Gurobi 9.0.2 (win64) logging started Sun Dec 27 04:18:21 2020

Changed value of parameter logfile to result\SunCable-20201227T0415\scenario_2030_m30_cab3800.log
   Prev:   Default: 
Gurobi Optimizer version 9.0.2 build v9.0.2rc0 (win64)
Optimize a model with 1243974 rows, 762167 columns and 3491691 nonzeros
Model fingerprint: 0xb84a62b3
Coefficient statistics:
  Matrix range     [1e-07, 4e+05]
  Objective range  [1e+00, 1e+00]
  Bounds range     [0e+00, 0e+00]
  RHS range        [2e-05, 3e+08]
Warning: Model contains large matrix coefficient range
         Consider reformulating model or setting NumericFocus parameter
         to avoid numerical issues.

Concurrent LP optimizer: primal simplex, dual simplex, and barrier
Showing barrier log only...

Presolve removed 1068997 rows and 595935 columns
Presolve time: 2.64s
Presolved: 174977 rows, 280098 columns, 652320 nonzeros

Ordering time: 0.08s

Barrier statistics:
 Dense cols : 5
 AA' NZ     : 6.422e+05
 Factor NZ  : 3.150e+06 (roughly 200 MBytes of memory)
 Factor Ops : 7.040e+07 (less than 1 second per iteration)
 Threads    : 30

                  Objective                Residual
Iter       Primal          Dual         Primal    Dual     Compl     Time
   0  -2.51775258e+16 -1.07293375e+15  7.34e+06 2.55e+04  3.02e+12     3s
   1  -5.46473536e+15 -1.08609344e+15  1.59e+06 4.56e+06  8.52e+11     3s
   2  -1.75492641e+15 -1.02427967e+15  5.12e+05 8.63e+05  2.46e+11     4s
   3  -3.45263536e+14 -8.98958473e+14  1.02e+05 1.37e+05  4.94e+10     4s
   4  -7.78539813e+13 -5.52843371e+14  2.21e+04 3.75e+04  1.18e+10     4s
   5  -2.41782702e+13 -3.73549251e+14  7.02e+03 1.86e+04  4.53e+09     4s
   6  -7.25307046e+12 -2.62630155e+14  2.30e+03 9.23e+03  1.91e+09     5s
   7  -2.20515193e+12 -1.01219411e+14  8.23e+02 7.99e+02  4.34e+08     5s
   8   4.90185976e+11 -2.52451413e+13  1.99e+01 3.89e+01  5.07e+07     5s
   9   2.79879918e+11 -1.94632095e+12  1.22e+00 1.31e+00  4.12e+06     5s
  10   1.17498455e+11 -7.94001144e+11  3.30e-01 9.50e-09  1.65e+06     5s
  11   3.17977944e+10 -2.08627375e+11  4.86e-02 5.59e-09  4.27e+05     6s
  12   1.61900438e+10 -7.03895931e+10  1.70e-02 9.31e-09  1.53e+05     6s
  13   1.07742106e+10 -9.75013130e+09  4.68e-03 1.12e-08  3.63e+04     6s
  14   9.06742731e+09 -7.93305873e+08  1.83e-03 7.45e-09  1.74e+04     6s
  15   8.48798913e+09  2.52326599e+09  9.01e-04 5.59e-09  1.05e+04     7s
  16   8.11754361e+09  5.13574687e+09  3.74e-04 3.73e-09  5.25e+03     7s
  17   7.98627087e+09  6.01314673e+09  1.95e-04 3.73e-09  3.47e+03     7s
  18   7.91582115e+09  6.66363336e+09  1.01e-04 2.79e-09  2.20e+03     7s
  19   7.87553233e+09  6.86853085e+09  5.31e-05 2.79e-09  1.77e+03     8s
  20   7.85029585e+09  6.98474336e+09  2.45e-05 2.79e-09  1.52e+03     8s
  21   7.83442979e+09  7.30349049e+09  1.30e-05 1.86e-09  9.34e+02     8s
  22   7.83084750e+09  7.35811596e+09  9.59e-06 1.86e-09  8.31e+02     8s
  23   7.83013907e+09  7.38666641e+09  9.00e-06 2.79e-09  7.80e+02     9s
  24   7.82581890e+09  7.45240199e+09  5.57e-06 1.86e-09  6.57e+02     9s
  25   7.82081288e+09  7.61173153e+09  2.38e-06 2.79e-09  3.68e+02     9s
  26   7.81917643e+09  7.65182787e+09  1.87e-06 1.86e-09  2.94e+02     9s
  27   7.81780712e+09  7.66288969e+09  1.39e-06 2.79e-09  2.72e+02    10s
  28   7.81722187e+09  7.67665384e+09  1.20e-06 1.86e-09  2.47e+02    10s
  29   7.81574961e+09  7.69378044e+09  7.26e-07 1.86e-09  2.14e+02    10s
  30   7.81481781e+09  7.71083177e+09  5.05e-07 2.79e-09  1.83e+02    10s
  31   7.81410319e+09  7.74089839e+09  3.09e-07 1.86e-09  1.29e+02    11s
  32   7.81370826e+09  7.74960702e+09  2.16e-07 1.86e-09  1.13e+02    11s
  33   7.81294954e+09  7.77625883e+09  8.27e-08 1.86e-09  6.45e+01    11s
  34   7.81275871e+09  7.78330924e+09  5.13e-08 1.86e-09  5.18e+01    12s
  35   7.81260569e+09  7.80231836e+09  4.52e-08 2.79e-09  1.81e+01    12s
  36   7.81251276e+09  7.80470961e+09  2.22e-07 1.86e-09  1.37e+01    12s
  37   7.81249775e+09  7.80511497e+09  1.77e-07 1.86e-09  1.30e+01    12s
  38   7.81248078e+09  7.80634919e+09  1.34e-07 1.86e-09  1.08e+01    13s
  39   7.81247592e+09  7.80760085e+09  5.14e-07 1.86e-09  8.57e+00    13s
  40   7.81246776e+09  7.80837519e+09  3.80e-07 1.86e-09  7.20e+00    13s
  41   7.81244869e+09  7.81023843e+09  4.71e-07 1.86e-09  3.89e+00    13s
  42   7.81244157e+09  7.81190403e+09  3.22e-07 2.79e-09  9.45e-01    13s
  43   7.81242586e+09  7.81237228e+09  9.63e-08 2.79e-09  9.42e-02    14s
  44   7.81242153e+09  7.81242016e+09  5.96e-08 2.79e-09  2.42e-03    14s
  45   7.81242123e+09  7.81242020e+09  1.25e-03 2.79e-09  1.82e-03    14s

Barrier solved model in 45 iterations and 14.06 seconds
Optimal objective 7.81242123e+09

Crossover log...

   12609 DPushes remaining with DInf 0.0000000e+00                14s
    2851 DPushes remaining with DInf 0.0000000e+00                15s
       0 DPushes remaining with DInf 0.0000000e+00                16s
Warning: Markowitz tolerance tightened to 0.5

  135640 PPushes remaining with PInf 7.7617044e-04                16s
   62824 PPushes remaining with PInf 5.3667563e+01                23s
   13203 PPushes remaining with PInf 2.4923819e-01                25s
       0 PPushes remaining with PInf 0.0000000e+00                26s

  Push phase complete: Pinf 0.0000000e+00, Dinf 1.7557697e+04     26s

Iteration    Objective       Primal Inf.    Dual Inf.      Time
  148162    7.8124265e+09   0.000000e+00   1.755770e+04     26s
  148264    7.8124207e+09   0.000000e+00   0.000000e+00     28s

Solved with barrier
Solved in 148264 iterations and 28.06 seconds
Optimal objective  7.812420653e+09
Warning: unscaled primal violation = 0.000872732 and residual = 0.000872732
